
;this file is automatically generated: Tue Feb 23 13:38:05 CST 2021

;declarations generated

(declare-fun type_c148f3c9_a49b_48ff_9f28_f64a248b2e20_Class12 ( Int) Bool)
(declare-fun type_c148f3c9_a49b_48ff_9f28_f64a248b2e20_Class11 ( Int) Bool)
(declare-fun type_c148f3c9_a49b_48ff_9f28_f64a248b2e20_Class10 ( Int) Bool)
(declare-fun type_c148f3c9_a49b_48ff_9f28_f64a248b2e20_Class16 ( Int) Bool)
(declare-fun type_c148f3c9_a49b_48ff_9f28_f64a248b2e20_Class15 ( Int) Bool)
(declare-fun type_c148f3c9_a49b_48ff_9f28_f64a248b2e20_Class14 ( Int) Bool)
(declare-fun type_c148f3c9_a49b_48ff_9f28_f64a248b2e20_Class13 ( Int) Bool)
(declare-fun type_c148f3c9_a49b_48ff_9f28_f64a248b2e20_Class19 ( Int) Bool)
(declare-fun type_c148f3c9_a49b_48ff_9f28_f64a248b2e20_Class18 ( Int) Bool)
(declare-fun type_c148f3c9_a49b_48ff_9f28_f64a248b2e20_Class17 ( Int) Bool)
(declare-fun type_c148f3c9_a49b_48ff_9f28_f64a248b2e20_Class30 ( Int) Bool)
(declare-fun type_c148f3c9_a49b_48ff_9f28_f64a248b2e20_Class23 ( Int) Bool)
(declare-fun type_c148f3c9_a49b_48ff_9f28_f64a248b2e20_Class22 ( Int) Bool)
(declare-fun type_c148f3c9_a49b_48ff_9f28_f64a248b2e20_Class21 ( Int) Bool)
(declare-fun type_c148f3c9_a49b_48ff_9f28_f64a248b2e20_Class20 ( Int) Bool)
(declare-fun type_c148f3c9_a49b_48ff_9f28_f64a248b2e20_Class27 ( Int) Bool)
(declare-fun oclExcludes ( Int Int) Bool)
(declare-fun type_c148f3c9_a49b_48ff_9f28_f64a248b2e20_Class26 ( Int) Bool)
(declare-fun type_c148f3c9_a49b_48ff_9f28_f64a248b2e20_Class25 ( Int) Bool)
(declare-fun type_c148f3c9_a49b_48ff_9f28_f64a248b2e20_Class24 ( Int) Bool)
(declare-fun type_c148f3c9_a49b_48ff_9f28_f64a248b2e20_Class29 ( Int) Bool)
(declare-fun type_c148f3c9_a49b_48ff_9f28_f64a248b2e20_Class28 ( Int) Bool)
(declare-fun type_c148f3c9_a49b_48ff_9f28_f64a248b2e20_Class41 ( Int) Bool)
(declare-fun type_c148f3c9_a49b_48ff_9f28_f64a248b2e20_Class40 ( Int) Bool)
(declare-fun type_c148f3c9_a49b_48ff_9f28_f64a248b2e20_Class34 ( Int) Bool)
(declare-fun type_c148f3c9_a49b_48ff_9f28_f64a248b2e20_Class33 ( Int) Bool)
(declare-fun type_c148f3c9_a49b_48ff_9f28_f64a248b2e20_Class32 ( Int) Bool)
(declare-fun type_c148f3c9_a49b_48ff_9f28_f64a248b2e20_Class31 ( Int) Bool)
(declare-fun type_c148f3c9_a49b_48ff_9f28_f64a248b2e20_Class38 ( Int) Bool)
(declare-fun type_c148f3c9_a49b_48ff_9f28_f64a248b2e20_Class37 ( Int) Bool)
(declare-fun type_c148f3c9_a49b_48ff_9f28_f64a248b2e20_Class36 ( Int) Bool)
(declare-fun type_c148f3c9_a49b_48ff_9f28_f64a248b2e20_Class35 ( Int) Bool)
(declare-fun type_c148f3c9_a49b_48ff_9f28_f64a248b2e20_Class39 ( Int) Bool)
(declare-fun type_c148f3c9_a49b_48ff_9f28_f64a248b2e20_Class6 ( Int) Bool)
(declare-fun type_c148f3c9_a49b_48ff_9f28_f64a248b2e20_Class7 ( Int) Bool)
(declare-fun type_c148f3c9_a49b_48ff_9f28_f64a248b2e20_Class8 ( Int) Bool)
(declare-fun type_c148f3c9_a49b_48ff_9f28_f64a248b2e20_Class9 ( Int) Bool)
(declare-fun type_c148f3c9_a49b_48ff_9f28_f64a248b2e20_Class2 ( Int) Bool)
(declare-fun type_c148f3c9_a49b_48ff_9f28_f64a248b2e20_Class3 ( Int) Bool)
(declare-fun type_c148f3c9_a49b_48ff_9f28_f64a248b2e20_Class4 ( Int) Bool)
(declare-fun type_c148f3c9_a49b_48ff_9f28_f64a248b2e20_Class5 ( Int) Bool)
(declare-fun type_c148f3c9_a49b_48ff_9f28_f64a248b2e20_Class45 ( Int) Bool)
(declare-fun type_c148f3c9_a49b_48ff_9f28_f64a248b2e20_Class44 ( Int) Bool)
(declare-fun type_c148f3c9_a49b_48ff_9f28_f64a248b2e20_Class43 ( Int) Bool)
(declare-fun type_c148f3c9_a49b_48ff_9f28_f64a248b2e20_Class42 ( Int) Bool)
(declare-fun type_c148f3c9_a49b_48ff_9f28_f64a248b2e20_Class0 ( Int) Bool)
(declare-fun type_c148f3c9_a49b_48ff_9f28_f64a248b2e20_Class1 ( Int) Bool)
(declare-fun Cardinality ( Int) Int)
(declare-fun class45_Class45IntAttr1 ( Int) Int)
(declare-fun obj_65b24328_d7db_4528_9e22_2e7267425bbb ( Int) Int)
(declare-fun oclSelect ( Int Bool) Int)
(declare-fun Enum0 ( Int) Int)
(declare-fun Enum1 ( Int) Int)
(declare-fun Enum2 ( Int) Int)
(declare-fun container_ ( Int) Int)
(declare-fun oclIncludes ( Int Int) Bool)
(declare-fun ObjAt ( Int Int) Int)

;formula(s) generated
(assert (! (forall ((v Int)) (=> ( type_c148f3c9_a49b_48ff_9f28_f64a248b2e20_Class45 v )  (>= ( class45_Class45IntAttr1 ( obj_65b24328_d7db_4528_9e22_2e7267425bbb v )  )  8))):named l0))
(assert (! (exists ((o Int)) (and (and (and ( type_c148f3c9_a49b_48ff_9f28_f64a248b2e20_Class0 ( obj_65b24328_d7db_4528_9e22_2e7267425bbb o )  )  ( type_c148f3c9_a49b_48ff_9f28_f64a248b2e20_Class22 ( obj_65b24328_d7db_4528_9e22_2e7267425bbb o )  ) ) ( type_c148f3c9_a49b_48ff_9f28_f64a248b2e20_Class35 ( obj_65b24328_d7db_4528_9e22_2e7267425bbb o )  ) ) ( type_c148f3c9_a49b_48ff_9f28_f64a248b2e20_Class2 ( obj_65b24328_d7db_4528_9e22_2e7267425bbb o )  ) )):named c0))
(assert (! (exists ((o Int)) ( type_c148f3c9_a49b_48ff_9f28_f64a248b2e20_Class1 ( obj_65b24328_d7db_4528_9e22_2e7267425bbb o )  ) ):named c1))
(assert (! (exists ((o Int)) (and (and (and (and ( type_c148f3c9_a49b_48ff_9f28_f64a248b2e20_Class10 ( obj_65b24328_d7db_4528_9e22_2e7267425bbb o )  )  ( type_c148f3c9_a49b_48ff_9f28_f64a248b2e20_Class16 ( obj_65b24328_d7db_4528_9e22_2e7267425bbb o )  ) ) ( type_c148f3c9_a49b_48ff_9f28_f64a248b2e20_Class15 ( obj_65b24328_d7db_4528_9e22_2e7267425bbb o )  ) ) ( type_c148f3c9_a49b_48ff_9f28_f64a248b2e20_Class41 ( obj_65b24328_d7db_4528_9e22_2e7267425bbb o )  ) ) ( type_c148f3c9_a49b_48ff_9f28_f64a248b2e20_Class2 ( obj_65b24328_d7db_4528_9e22_2e7267425bbb o )  ) )):named c2))
(assert (! (exists ((o Int)) ( type_c148f3c9_a49b_48ff_9f28_f64a248b2e20_Class11 ( obj_65b24328_d7db_4528_9e22_2e7267425bbb o )  ) ):named c3))
(assert (! (exists ((o Int)) (and (and (and (and ( type_c148f3c9_a49b_48ff_9f28_f64a248b2e20_Class12 ( obj_65b24328_d7db_4528_9e22_2e7267425bbb o )  )  ( type_c148f3c9_a49b_48ff_9f28_f64a248b2e20_Class22 ( obj_65b24328_d7db_4528_9e22_2e7267425bbb o )  ) ) ( type_c148f3c9_a49b_48ff_9f28_f64a248b2e20_Class35 ( obj_65b24328_d7db_4528_9e22_2e7267425bbb o )  ) ) ( type_c148f3c9_a49b_48ff_9f28_f64a248b2e20_Class0 ( obj_65b24328_d7db_4528_9e22_2e7267425bbb o )  ) ) ( type_c148f3c9_a49b_48ff_9f28_f64a248b2e20_Class2 ( obj_65b24328_d7db_4528_9e22_2e7267425bbb o )  ) )):named c4))
(assert (! (exists ((o Int)) (and (and (and ( type_c148f3c9_a49b_48ff_9f28_f64a248b2e20_Class13 ( obj_65b24328_d7db_4528_9e22_2e7267425bbb o )  )  ( type_c148f3c9_a49b_48ff_9f28_f64a248b2e20_Class16 ( obj_65b24328_d7db_4528_9e22_2e7267425bbb o )  ) ) ( type_c148f3c9_a49b_48ff_9f28_f64a248b2e20_Class15 ( obj_65b24328_d7db_4528_9e22_2e7267425bbb o )  ) ) ( type_c148f3c9_a49b_48ff_9f28_f64a248b2e20_Class2 ( obj_65b24328_d7db_4528_9e22_2e7267425bbb o )  ) )):named c5))
(assert (! (exists ((o Int)) (and (and (and (and (and (and (and ( type_c148f3c9_a49b_48ff_9f28_f64a248b2e20_Class14 ( obj_65b24328_d7db_4528_9e22_2e7267425bbb o )  )  ( type_c148f3c9_a49b_48ff_9f28_f64a248b2e20_Class33 ( obj_65b24328_d7db_4528_9e22_2e7267425bbb o )  ) ) ( type_c148f3c9_a49b_48ff_9f28_f64a248b2e20_Class13 ( obj_65b24328_d7db_4528_9e22_2e7267425bbb o )  ) ) ( type_c148f3c9_a49b_48ff_9f28_f64a248b2e20_Class16 ( obj_65b24328_d7db_4528_9e22_2e7267425bbb o )  ) ) ( type_c148f3c9_a49b_48ff_9f28_f64a248b2e20_Class15 ( obj_65b24328_d7db_4528_9e22_2e7267425bbb o )  ) ) ( type_c148f3c9_a49b_48ff_9f28_f64a248b2e20_Class4 ( obj_65b24328_d7db_4528_9e22_2e7267425bbb o )  ) ) ( type_c148f3c9_a49b_48ff_9f28_f64a248b2e20_Class41 ( obj_65b24328_d7db_4528_9e22_2e7267425bbb o )  ) ) ( type_c148f3c9_a49b_48ff_9f28_f64a248b2e20_Class2 ( obj_65b24328_d7db_4528_9e22_2e7267425bbb o )  ) )):named c6))
(assert (! (exists ((o Int)) (and ( type_c148f3c9_a49b_48ff_9f28_f64a248b2e20_Class15 ( obj_65b24328_d7db_4528_9e22_2e7267425bbb o )  )  ( type_c148f3c9_a49b_48ff_9f28_f64a248b2e20_Class2 ( obj_65b24328_d7db_4528_9e22_2e7267425bbb o )  ) )):named c7))
(assert (! (exists ((o Int)) (and (and ( type_c148f3c9_a49b_48ff_9f28_f64a248b2e20_Class16 ( obj_65b24328_d7db_4528_9e22_2e7267425bbb o )  )  ( type_c148f3c9_a49b_48ff_9f28_f64a248b2e20_Class15 ( obj_65b24328_d7db_4528_9e22_2e7267425bbb o )  ) ) ( type_c148f3c9_a49b_48ff_9f28_f64a248b2e20_Class2 ( obj_65b24328_d7db_4528_9e22_2e7267425bbb o )  ) )):named c8))
(assert (! (exists ((o Int)) (and (and (and (and ( type_c148f3c9_a49b_48ff_9f28_f64a248b2e20_Class17 ( obj_65b24328_d7db_4528_9e22_2e7267425bbb o )  )  ( type_c148f3c9_a49b_48ff_9f28_f64a248b2e20_Class24 ( obj_65b24328_d7db_4528_9e22_2e7267425bbb o )  ) ) ( type_c148f3c9_a49b_48ff_9f28_f64a248b2e20_Class26 ( obj_65b24328_d7db_4528_9e22_2e7267425bbb o )  ) ) ( type_c148f3c9_a49b_48ff_9f28_f64a248b2e20_Class32 ( obj_65b24328_d7db_4528_9e22_2e7267425bbb o )  ) ) ( type_c148f3c9_a49b_48ff_9f28_f64a248b2e20_Class2 ( obj_65b24328_d7db_4528_9e22_2e7267425bbb o )  ) )):named c9))
(assert (! (exists ((o Int)) ( type_c148f3c9_a49b_48ff_9f28_f64a248b2e20_Class18 ( obj_65b24328_d7db_4528_9e22_2e7267425bbb o )  ) ):named c10))
(assert (! (exists ((o Int)) ( type_c148f3c9_a49b_48ff_9f28_f64a248b2e20_Class19 ( obj_65b24328_d7db_4528_9e22_2e7267425bbb o )  ) ):named c11))
(assert (! (exists ((o Int)) ( type_c148f3c9_a49b_48ff_9f28_f64a248b2e20_Class2 ( obj_65b24328_d7db_4528_9e22_2e7267425bbb o )  ) ):named c12))
(assert (! (exists ((o Int)) (and (and ( type_c148f3c9_a49b_48ff_9f28_f64a248b2e20_Class20 ( obj_65b24328_d7db_4528_9e22_2e7267425bbb o )  )  ( type_c148f3c9_a49b_48ff_9f28_f64a248b2e20_Class21 ( obj_65b24328_d7db_4528_9e22_2e7267425bbb o )  ) ) ( type_c148f3c9_a49b_48ff_9f28_f64a248b2e20_Class2 ( obj_65b24328_d7db_4528_9e22_2e7267425bbb o )  ) )):named c13))
(assert (! (exists ((o Int)) (and ( type_c148f3c9_a49b_48ff_9f28_f64a248b2e20_Class21 ( obj_65b24328_d7db_4528_9e22_2e7267425bbb o )  )  ( type_c148f3c9_a49b_48ff_9f28_f64a248b2e20_Class2 ( obj_65b24328_d7db_4528_9e22_2e7267425bbb o )  ) )):named c14))
(assert (! (exists ((o Int)) (and (and ( type_c148f3c9_a49b_48ff_9f28_f64a248b2e20_Class22 ( obj_65b24328_d7db_4528_9e22_2e7267425bbb o )  )  ( type_c148f3c9_a49b_48ff_9f28_f64a248b2e20_Class35 ( obj_65b24328_d7db_4528_9e22_2e7267425bbb o )  ) ) ( type_c148f3c9_a49b_48ff_9f28_f64a248b2e20_Class2 ( obj_65b24328_d7db_4528_9e22_2e7267425bbb o )  ) )):named c15))
(assert (! (exists ((o Int)) (and (and (and (and (and (and ( type_c148f3c9_a49b_48ff_9f28_f64a248b2e20_Class23 ( obj_65b24328_d7db_4528_9e22_2e7267425bbb o )  )  ( type_c148f3c9_a49b_48ff_9f28_f64a248b2e20_Class12 ( obj_65b24328_d7db_4528_9e22_2e7267425bbb o )  ) ) ( type_c148f3c9_a49b_48ff_9f28_f64a248b2e20_Class22 ( obj_65b24328_d7db_4528_9e22_2e7267425bbb o )  ) ) ( type_c148f3c9_a49b_48ff_9f28_f64a248b2e20_Class25 ( obj_65b24328_d7db_4528_9e22_2e7267425bbb o )  ) ) ( type_c148f3c9_a49b_48ff_9f28_f64a248b2e20_Class35 ( obj_65b24328_d7db_4528_9e22_2e7267425bbb o )  ) ) ( type_c148f3c9_a49b_48ff_9f28_f64a248b2e20_Class0 ( obj_65b24328_d7db_4528_9e22_2e7267425bbb o )  ) ) ( type_c148f3c9_a49b_48ff_9f28_f64a248b2e20_Class2 ( obj_65b24328_d7db_4528_9e22_2e7267425bbb o )  ) )):named c16))
(assert (! (exists ((o Int)) (and (and (and ( type_c148f3c9_a49b_48ff_9f28_f64a248b2e20_Class24 ( obj_65b24328_d7db_4528_9e22_2e7267425bbb o )  )  ( type_c148f3c9_a49b_48ff_9f28_f64a248b2e20_Class26 ( obj_65b24328_d7db_4528_9e22_2e7267425bbb o )  ) ) ( type_c148f3c9_a49b_48ff_9f28_f64a248b2e20_Class32 ( obj_65b24328_d7db_4528_9e22_2e7267425bbb o )  ) ) ( type_c148f3c9_a49b_48ff_9f28_f64a248b2e20_Class2 ( obj_65b24328_d7db_4528_9e22_2e7267425bbb o )  ) )):named c17))
(assert (! (exists ((o Int)) (and (and (and (and (and ( type_c148f3c9_a49b_48ff_9f28_f64a248b2e20_Class25 ( obj_65b24328_d7db_4528_9e22_2e7267425bbb o )  )  ( type_c148f3c9_a49b_48ff_9f28_f64a248b2e20_Class12 ( obj_65b24328_d7db_4528_9e22_2e7267425bbb o )  ) ) ( type_c148f3c9_a49b_48ff_9f28_f64a248b2e20_Class22 ( obj_65b24328_d7db_4528_9e22_2e7267425bbb o )  ) ) ( type_c148f3c9_a49b_48ff_9f28_f64a248b2e20_Class35 ( obj_65b24328_d7db_4528_9e22_2e7267425bbb o )  ) ) ( type_c148f3c9_a49b_48ff_9f28_f64a248b2e20_Class0 ( obj_65b24328_d7db_4528_9e22_2e7267425bbb o )  ) ) ( type_c148f3c9_a49b_48ff_9f28_f64a248b2e20_Class2 ( obj_65b24328_d7db_4528_9e22_2e7267425bbb o )  ) )):named c18))
(assert (! (exists ((o Int)) (and (and ( type_c148f3c9_a49b_48ff_9f28_f64a248b2e20_Class26 ( obj_65b24328_d7db_4528_9e22_2e7267425bbb o )  )  ( type_c148f3c9_a49b_48ff_9f28_f64a248b2e20_Class32 ( obj_65b24328_d7db_4528_9e22_2e7267425bbb o )  ) ) ( type_c148f3c9_a49b_48ff_9f28_f64a248b2e20_Class2 ( obj_65b24328_d7db_4528_9e22_2e7267425bbb o )  ) )):named c19))
(assert (! (exists ((o Int)) (and ( type_c148f3c9_a49b_48ff_9f28_f64a248b2e20_Class27 ( obj_65b24328_d7db_4528_9e22_2e7267425bbb o )  )  ( type_c148f3c9_a49b_48ff_9f28_f64a248b2e20_Class2 ( obj_65b24328_d7db_4528_9e22_2e7267425bbb o )  ) )):named c20))
(assert (! (exists ((o Int)) ( type_c148f3c9_a49b_48ff_9f28_f64a248b2e20_Class28 ( obj_65b24328_d7db_4528_9e22_2e7267425bbb o )  ) ):named c21))
(assert (! (exists ((o Int)) ( type_c148f3c9_a49b_48ff_9f28_f64a248b2e20_Class29 ( obj_65b24328_d7db_4528_9e22_2e7267425bbb o )  ) ):named c22))
(assert (! (exists ((o Int)) ( type_c148f3c9_a49b_48ff_9f28_f64a248b2e20_Class3 ( obj_65b24328_d7db_4528_9e22_2e7267425bbb o )  ) ):named c23))
(assert (! (exists ((o Int)) (and ( type_c148f3c9_a49b_48ff_9f28_f64a248b2e20_Class30 ( obj_65b24328_d7db_4528_9e22_2e7267425bbb o )  )  ( type_c148f3c9_a49b_48ff_9f28_f64a248b2e20_Class2 ( obj_65b24328_d7db_4528_9e22_2e7267425bbb o )  ) )):named c24))
(assert (! (exists ((o Int)) (and (and (and (and ( type_c148f3c9_a49b_48ff_9f28_f64a248b2e20_Class31 ( obj_65b24328_d7db_4528_9e22_2e7267425bbb o )  )  ( type_c148f3c9_a49b_48ff_9f28_f64a248b2e20_Class16 ( obj_65b24328_d7db_4528_9e22_2e7267425bbb o )  ) ) ( type_c148f3c9_a49b_48ff_9f28_f64a248b2e20_Class15 ( obj_65b24328_d7db_4528_9e22_2e7267425bbb o )  ) ) ( type_c148f3c9_a49b_48ff_9f28_f64a248b2e20_Class41 ( obj_65b24328_d7db_4528_9e22_2e7267425bbb o )  ) ) ( type_c148f3c9_a49b_48ff_9f28_f64a248b2e20_Class2 ( obj_65b24328_d7db_4528_9e22_2e7267425bbb o )  ) )):named c25))
(assert (! (exists ((o Int)) (and ( type_c148f3c9_a49b_48ff_9f28_f64a248b2e20_Class32 ( obj_65b24328_d7db_4528_9e22_2e7267425bbb o )  )  ( type_c148f3c9_a49b_48ff_9f28_f64a248b2e20_Class2 ( obj_65b24328_d7db_4528_9e22_2e7267425bbb o )  ) )):named c26))
(assert (! (exists ((o Int)) (and (and (and (and (and ( type_c148f3c9_a49b_48ff_9f28_f64a248b2e20_Class33 ( obj_65b24328_d7db_4528_9e22_2e7267425bbb o )  )  ( type_c148f3c9_a49b_48ff_9f28_f64a248b2e20_Class13 ( obj_65b24328_d7db_4528_9e22_2e7267425bbb o )  ) ) ( type_c148f3c9_a49b_48ff_9f28_f64a248b2e20_Class16 ( obj_65b24328_d7db_4528_9e22_2e7267425bbb o )  ) ) ( type_c148f3c9_a49b_48ff_9f28_f64a248b2e20_Class15 ( obj_65b24328_d7db_4528_9e22_2e7267425bbb o )  ) ) ( type_c148f3c9_a49b_48ff_9f28_f64a248b2e20_Class41 ( obj_65b24328_d7db_4528_9e22_2e7267425bbb o )  ) ) ( type_c148f3c9_a49b_48ff_9f28_f64a248b2e20_Class2 ( obj_65b24328_d7db_4528_9e22_2e7267425bbb o )  ) )):named c27))
(assert (! (exists ((o Int)) ( type_c148f3c9_a49b_48ff_9f28_f64a248b2e20_Class34 ( obj_65b24328_d7db_4528_9e22_2e7267425bbb o )  ) ):named c28))
(assert (! (exists ((o Int)) (and ( type_c148f3c9_a49b_48ff_9f28_f64a248b2e20_Class35 ( obj_65b24328_d7db_4528_9e22_2e7267425bbb o )  )  ( type_c148f3c9_a49b_48ff_9f28_f64a248b2e20_Class2 ( obj_65b24328_d7db_4528_9e22_2e7267425bbb o )  ) )):named c29))
(assert (! (exists ((o Int)) ( type_c148f3c9_a49b_48ff_9f28_f64a248b2e20_Class36 ( obj_65b24328_d7db_4528_9e22_2e7267425bbb o )  ) ):named c30))
(assert (! (exists ((o Int)) ( type_c148f3c9_a49b_48ff_9f28_f64a248b2e20_Class37 ( obj_65b24328_d7db_4528_9e22_2e7267425bbb o )  ) ):named c31))
(assert (! (exists ((o Int)) (and ( type_c148f3c9_a49b_48ff_9f28_f64a248b2e20_Class38 ( obj_65b24328_d7db_4528_9e22_2e7267425bbb o )  )  ( type_c148f3c9_a49b_48ff_9f28_f64a248b2e20_Class2 ( obj_65b24328_d7db_4528_9e22_2e7267425bbb o )  ) )):named c32))
(assert (! (exists ((o Int)) ( type_c148f3c9_a49b_48ff_9f28_f64a248b2e20_Class39 ( obj_65b24328_d7db_4528_9e22_2e7267425bbb o )  ) ):named c33))
(assert (! (exists ((o Int)) (and (and (and (and (and (and ( type_c148f3c9_a49b_48ff_9f28_f64a248b2e20_Class4 ( obj_65b24328_d7db_4528_9e22_2e7267425bbb o )  )  ( type_c148f3c9_a49b_48ff_9f28_f64a248b2e20_Class33 ( obj_65b24328_d7db_4528_9e22_2e7267425bbb o )  ) ) ( type_c148f3c9_a49b_48ff_9f28_f64a248b2e20_Class13 ( obj_65b24328_d7db_4528_9e22_2e7267425bbb o )  ) ) ( type_c148f3c9_a49b_48ff_9f28_f64a248b2e20_Class16 ( obj_65b24328_d7db_4528_9e22_2e7267425bbb o )  ) ) ( type_c148f3c9_a49b_48ff_9f28_f64a248b2e20_Class15 ( obj_65b24328_d7db_4528_9e22_2e7267425bbb o )  ) ) ( type_c148f3c9_a49b_48ff_9f28_f64a248b2e20_Class41 ( obj_65b24328_d7db_4528_9e22_2e7267425bbb o )  ) ) ( type_c148f3c9_a49b_48ff_9f28_f64a248b2e20_Class2 ( obj_65b24328_d7db_4528_9e22_2e7267425bbb o )  ) )):named c34))
(assert (! (exists ((o Int)) (and (and (and ( type_c148f3c9_a49b_48ff_9f28_f64a248b2e20_Class40 ( obj_65b24328_d7db_4528_9e22_2e7267425bbb o )  )  ( type_c148f3c9_a49b_48ff_9f28_f64a248b2e20_Class21 ( obj_65b24328_d7db_4528_9e22_2e7267425bbb o )  ) ) ( type_c148f3c9_a49b_48ff_9f28_f64a248b2e20_Class2 ( obj_65b24328_d7db_4528_9e22_2e7267425bbb o )  ) ) ( type_c148f3c9_a49b_48ff_9f28_f64a248b2e20_Class20 ( obj_65b24328_d7db_4528_9e22_2e7267425bbb o )  ) )):named c35))
(assert (! (exists ((o Int)) (and (and (and ( type_c148f3c9_a49b_48ff_9f28_f64a248b2e20_Class41 ( obj_65b24328_d7db_4528_9e22_2e7267425bbb o )  )  ( type_c148f3c9_a49b_48ff_9f28_f64a248b2e20_Class16 ( obj_65b24328_d7db_4528_9e22_2e7267425bbb o )  ) ) ( type_c148f3c9_a49b_48ff_9f28_f64a248b2e20_Class15 ( obj_65b24328_d7db_4528_9e22_2e7267425bbb o )  ) ) ( type_c148f3c9_a49b_48ff_9f28_f64a248b2e20_Class2 ( obj_65b24328_d7db_4528_9e22_2e7267425bbb o )  ) )):named c36))
(assert (! (exists ((o Int)) (and (and (and ( type_c148f3c9_a49b_48ff_9f28_f64a248b2e20_Class42 ( obj_65b24328_d7db_4528_9e22_2e7267425bbb o )  )  ( type_c148f3c9_a49b_48ff_9f28_f64a248b2e20_Class22 ( obj_65b24328_d7db_4528_9e22_2e7267425bbb o )  ) ) ( type_c148f3c9_a49b_48ff_9f28_f64a248b2e20_Class35 ( obj_65b24328_d7db_4528_9e22_2e7267425bbb o )  ) ) ( type_c148f3c9_a49b_48ff_9f28_f64a248b2e20_Class2 ( obj_65b24328_d7db_4528_9e22_2e7267425bbb o )  ) )):named c37))
(assert (! (exists ((o Int)) ( type_c148f3c9_a49b_48ff_9f28_f64a248b2e20_Class43 ( obj_65b24328_d7db_4528_9e22_2e7267425bbb o )  ) ):named c38))
(assert (! (exists ((o Int)) (and (and (and (and (and (and ( type_c148f3c9_a49b_48ff_9f28_f64a248b2e20_Class44 ( obj_65b24328_d7db_4528_9e22_2e7267425bbb o )  )  ( type_c148f3c9_a49b_48ff_9f28_f64a248b2e20_Class33 ( obj_65b24328_d7db_4528_9e22_2e7267425bbb o )  ) ) ( type_c148f3c9_a49b_48ff_9f28_f64a248b2e20_Class13 ( obj_65b24328_d7db_4528_9e22_2e7267425bbb o )  ) ) ( type_c148f3c9_a49b_48ff_9f28_f64a248b2e20_Class16 ( obj_65b24328_d7db_4528_9e22_2e7267425bbb o )  ) ) ( type_c148f3c9_a49b_48ff_9f28_f64a248b2e20_Class15 ( obj_65b24328_d7db_4528_9e22_2e7267425bbb o )  ) ) ( type_c148f3c9_a49b_48ff_9f28_f64a248b2e20_Class41 ( obj_65b24328_d7db_4528_9e22_2e7267425bbb o )  ) ) ( type_c148f3c9_a49b_48ff_9f28_f64a248b2e20_Class2 ( obj_65b24328_d7db_4528_9e22_2e7267425bbb o )  ) )):named c39))
(assert (! (exists ((o Int)) ( type_c148f3c9_a49b_48ff_9f28_f64a248b2e20_Class45 ( obj_65b24328_d7db_4528_9e22_2e7267425bbb o )  ) ):named c40))
(assert (! (exists ((o Int)) ( type_c148f3c9_a49b_48ff_9f28_f64a248b2e20_Class5 ( obj_65b24328_d7db_4528_9e22_2e7267425bbb o )  ) ):named c41))
(assert (! (exists ((o Int)) (and (and (and (and ( type_c148f3c9_a49b_48ff_9f28_f64a248b2e20_Class6 ( obj_65b24328_d7db_4528_9e22_2e7267425bbb o )  )  ( type_c148f3c9_a49b_48ff_9f28_f64a248b2e20_Class22 ( obj_65b24328_d7db_4528_9e22_2e7267425bbb o )  ) ) ( type_c148f3c9_a49b_48ff_9f28_f64a248b2e20_Class35 ( obj_65b24328_d7db_4528_9e22_2e7267425bbb o )  ) ) ( type_c148f3c9_a49b_48ff_9f28_f64a248b2e20_Class2 ( obj_65b24328_d7db_4528_9e22_2e7267425bbb o )  ) ) ( type_c148f3c9_a49b_48ff_9f28_f64a248b2e20_Class42 ( obj_65b24328_d7db_4528_9e22_2e7267425bbb o )  ) )):named c42))
(assert (! (exists ((o Int)) ( type_c148f3c9_a49b_48ff_9f28_f64a248b2e20_Class7 ( obj_65b24328_d7db_4528_9e22_2e7267425bbb o )  ) ):named c43))
(assert (! (exists ((o Int)) (and (and (and (and (and ( type_c148f3c9_a49b_48ff_9f28_f64a248b2e20_Class8 ( obj_65b24328_d7db_4528_9e22_2e7267425bbb o )  )  ( type_c148f3c9_a49b_48ff_9f28_f64a248b2e20_Class16 ( obj_65b24328_d7db_4528_9e22_2e7267425bbb o )  ) ) ( type_c148f3c9_a49b_48ff_9f28_f64a248b2e20_Class15 ( obj_65b24328_d7db_4528_9e22_2e7267425bbb o )  ) ) ( type_c148f3c9_a49b_48ff_9f28_f64a248b2e20_Class41 ( obj_65b24328_d7db_4528_9e22_2e7267425bbb o )  ) ) ( type_c148f3c9_a49b_48ff_9f28_f64a248b2e20_Class10 ( obj_65b24328_d7db_4528_9e22_2e7267425bbb o )  ) ) ( type_c148f3c9_a49b_48ff_9f28_f64a248b2e20_Class2 ( obj_65b24328_d7db_4528_9e22_2e7267425bbb o )  ) )):named c44))
(assert (! (exists ((o Int)) (and (and (and (and (and (and (and ( type_c148f3c9_a49b_48ff_9f28_f64a248b2e20_Class9 ( obj_65b24328_d7db_4528_9e22_2e7267425bbb o )  )  ( type_c148f3c9_a49b_48ff_9f28_f64a248b2e20_Class22 ( obj_65b24328_d7db_4528_9e22_2e7267425bbb o )  ) ) ( type_c148f3c9_a49b_48ff_9f28_f64a248b2e20_Class35 ( obj_65b24328_d7db_4528_9e22_2e7267425bbb o )  ) ) ( type_c148f3c9_a49b_48ff_9f28_f64a248b2e20_Class16 ( obj_65b24328_d7db_4528_9e22_2e7267425bbb o )  ) ) ( type_c148f3c9_a49b_48ff_9f28_f64a248b2e20_Class15 ( obj_65b24328_d7db_4528_9e22_2e7267425bbb o )  ) ) ( type_c148f3c9_a49b_48ff_9f28_f64a248b2e20_Class0 ( obj_65b24328_d7db_4528_9e22_2e7267425bbb o )  ) ) ( type_c148f3c9_a49b_48ff_9f28_f64a248b2e20_Class41 ( obj_65b24328_d7db_4528_9e22_2e7267425bbb o )  ) ) ( type_c148f3c9_a49b_48ff_9f28_f64a248b2e20_Class2 ( obj_65b24328_d7db_4528_9e22_2e7267425bbb o )  ) )):named c45))

 ;end of formula 